k = 50;
b = 25;
AtomicConstraints =  [|
1, 2|
	1, 3|
	1, 4|
	1, 5|
	1, 6|
	1, 13|
	1, 15|
	1, 16|
	1, 17|
	1, 18|
	1, 19|
	2, 3|
	2, 4|
	2, 5|
	2, 6|
	2, 15|
	2, 16|
	2, 17|
	2, 18|
	2, 19|
	3, 4|
	3, 5|
	3, 6|
	3, 16|
	3, 17|
	3, 18|
	3, 19|
	4, 5|
	4, 6|
	4, 17|
	4, 18|
	4, 19|
	5, 6|
	5, 18|
	5, 19|
	6, 19|
	8, 1|
	8, 2|
	8, 3|
	8, 4|
	8, 5|
	8, 6|
	8, 7|
	8, 9|
	8, 10|
	8, 11|
	8, 12|
	8, 13|
	8, 14|
	8, 15|
	8, 16|
	8, 17|
	8, 18|
	8, 19|
	8, 20|
	8, 21|
	8, 22|
	8, 23|
	7, 1|
	7, 2|
	7, 3|
	7, 4|
	7, 5|
	7, 6|
	7, 9|
	7, 10|
	7, 11|
	7, 12|
	7, 13|
	7, 14|
	7, 15|
	7, 16|
	7, 17|
	7, 18|
	7, 19|
	7, 20|
	7, 21|
	7, 22|
	7, 23|
	9, 1|
	9, 2|
	9, 3|
	9, 4|
	9, 5|
	9, 6|
	9, 10|
	9, 11|
	9, 12|
	9, 13|
	9, 15|
	9, 16|
	9, 17|
	9, 18|
	9, 19|
	9, 21|
	9, 22|
	9, 23|
	10, 1|
	10, 2|
	10, 3|
	10, 4|
	10, 5|
	10, 6|
	10, 11|
	10, 12|
	10, 13|
	10, 15|
	10, 16|
	10, 17|
	10, 18|
	10, 19|
	10, 21|
	10, 22|
	10, 23|
	11, 1|
	11, 2|
	11, 3|
	11, 4|
	11, 5|
	11, 6|
	11, 12|
	11, 13|
	11, 15|
	11, 16|
	11, 17|
	11, 18|
	11, 19|
	11, 22|
	11, 23|
	12, 2|
	12, 3|
	12, 4|
	12, 5|
	12, 6|
	12, 13|
	12, 15|
	12, 16|
	12, 17|
	12, 18|
	12, 19|
	13, 2|
	13, 3|
	13, 4|
	13, 5|
	13, 6|
	13, 15|
	13, 16|
	13, 17|
	13, 18|
	13, 19|
	15, 4|
	15, 5|
	15, 6|
	15, 16|
	15, 17|
	15, 18|
	15, 19|
	16, 4|
	16, 5|
	16, 6|
	16, 17|
	16, 18|
	16, 19|
	17, 6|
	17, 18|
	17, 19|
	18, 19|
	14, 1|
	14, 2|
	14, 3|
	14, 4|
	14, 5|
	14, 6|
	14, 9|
	14, 10|
	14, 11|
	14, 12|
	14, 13|
	14, 15|
	14, 16|
	14, 17|
	14, 18|
	14, 19|
	14, 20|
	14, 21|
	14, 22|
	14, 23|
	20, 1|
	20, 2|
	20, 3|
	20, 4|
	20, 5|
	20, 6|
	20, 10|
	20, 11|
	20, 12|
	20, 13|
	20, 15|
	20, 16|
	20, 17|
	20, 18|
	20, 19|
	20, 21|
	20, 22|
	20, 23|
	21, 1|
	21, 2|
	21, 3|
	21, 4|
	21, 5|
	21, 6|
	21, 12|
	21, 13|
	21, 15|
	21, 16|
	21, 17|
	21, 18|
	21, 19|
	21, 22|
	21, 23|
	22, 1|
	22, 2|
	22, 3|
	22, 4|
	22, 5|
	22, 6|
	22, 12|
	22, 13|
	22, 15|
	22, 16|
	22, 17|
	22, 18|
	22, 19|
	22, 23|
	23, 1|
	23, 2|
	23, 3|
	23, 4|
	23, 5|
	23, 6|
	23, 12|
	23, 13|
	23, 15|
	23, 16|
	23, 17|
	23, 18|
	23, 19|
	34, 39|
	34, 45|
	35, 45|
	27, 43|
	27, 44|
	27, 31|
	27, 34|
	27, 35|
	27, 45|
	28, 43|
	28, 44|
	28, 31|
	28, 35|
	37, 43|
	37, 44|
	37, 31|
	37, 34|
	37, 35|
	37, 39|
	37, 45|
	37, 27|
	37, 26|
	38, 43|
	38, 44|
	38, 31|
	38, 34|
	38, 35|
	38, 45|
	38, 27|
	38, 28|
	38, 26|
	40, 43|
	40, 44|
	40, 31|
	40, 27|
	40, 28|
	26, 43|
	26, 44|
	26, 31|
	26, 34|
	26, 35|
	26, 39|
	26, 45|
	30, 43|
	30, 44|
	30, 31|
	30, 35|
	30, 27|
	30, 28|
	30, 38|
	30, 40|
	41, 43|
	41, 44|
	41, 31|
	41, 34|
	41, 35|
	41, 39|
	41, 45|
	41, 37|
	41, 27|
	41, 28|
	41, 38|
	41, 40|
	41, 26|
	41, 30|
	41, 29|
	42, 43|
	42, 44|
	42, 31|
	42, 35|
	42, 27|
	42, 28|
	42, 40|
	42, 30|
	42, 29|
	24, 43|
	24, 44|
	24, 31|
	25, 43|
	25, 44|
	25, 31|
	29, 43|
	29, 44|
	29, 31|
	29, 34|
	29, 35|
	29, 45|
	29, 37|
	29, 27|
	29, 28|
	29, 38|
	29, 40|
	48, 43|
	48, 44|
	48, 31|
	48, 27|
	48, 28|
	48, 40|
	48, 30|
	48, 42|
	48, 24|
	48, 25|
	49, 43|
	49, 44|
	49, 31|
	49, 28|
	49, 40|
	49, 24|
	49, 25|
	50, 43|
	50, 44|
	50, 31|
	50, 24|
	50, 25|
	33, 31|
	36, 43|
	36, 44|
	36, 31|
	36, 34|
	36, 35|
	36, 45|
	36, 37|
	36, 27|
	36, 28|
	36, 38|
	36, 40|
	36, 26|
	36, 41|
	36, 30|
	36, 42|
	36, 24|
	36, 25|
	36, 29|
	36, 48|
	36, 46|
	36, 47|
	46, 43|
	46, 44|
	46, 31|
	46, 34|
	46, 35|
	46, 45|
	46, 37|
	46, 27|
	46, 28|
	46, 38|
	46, 40|
	46, 26|
	46, 41|
	46, 30|
	46, 42|
	46, 24|
	46, 25|
	46, 29|
	47, 43|
	47, 44|
	47, 31|
	47, 35|
	47, 27|
	47, 28|
	47, 38|
	47, 40|
	47, 30|
	47, 42|
	47, 24|
	47, 25|
	47, 29|];
DisjunctiveConstraints =  [|1, 31, 1, 6|
	1, 30, 1, 5|
	1, 29, 1, 4|
	2, 31, 2, 6|
	2, 30, 2, 5|
	3, 31, 3, 6|
	8, 11, 8, 36|
	8, 14, 39, 8|
	8, 20, 45, 8|
	8, 21, 46, 8|
	8, 31, 8, 6|
	8, 34, 8, 9|
	8, 35, 8, 10|
	8, 27, 8, 2|
	8, 28, 8, 3|
	8, 37, 8, 12|
	8, 38, 8, 13|
	8, 40, 8, 15|
	8, 30, 8, 5|
	8, 41, 8, 16|
	8, 42, 8, 17|
	8, 29, 8, 4|
	7, 21, 7, 46|
	7, 22, 7, 47|
	7, 27, 7, 2|
	7, 28, 7, 3|
	7, 26, 7, 1|
	7, 30, 7, 5|
	7, 29, 7, 4|
	7, 48, 7, 23|
	9, 1, 26, 9|
	9, 21, 46, 9|
	9, 22, 47, 9|
	9, 23, 48, 9|
	9, 43, 9, 18|
	9, 31, 9, 6|
	9, 37, 9, 12|
	9, 38, 9, 13|
	9, 40, 9, 15|
	9, 30, 9, 5|
	9, 41, 9, 16|
	9, 42, 9, 17|
	9, 29, 9, 4|
	10, 1, 26, 10|
	10, 2, 27, 10|
	10, 22, 47, 10|
	10, 23, 48, 10|
	10, 43, 10, 18|
	10, 44, 10, 19|
	10, 31, 10, 6|
	10, 37, 10, 12|
	10, 38, 10, 13|
	10, 40, 10, 15|
	10, 30, 10, 5|
	10, 41, 10, 16|
	10, 42, 10, 17|
	11, 1, 26, 11|
	11, 2, 27, 11|
	11, 3, 28, 11|
	11, 23, 48, 11|
	11, 43, 11, 18|
	11, 44, 11, 19|
	11, 31, 11, 6|
	11, 38, 11, 13|
	11, 40, 11, 15|
	11, 41, 11, 16|
	11, 42, 11, 17|
	12, 2, 27, 12|
	12, 3, 28, 12|
	12, 4, 29, 12|
	12, 5, 30, 12|
	12, 43, 12, 18|
	12, 44, 12, 19|
	12, 41, 12, 16|
	12, 42, 12, 17|
	13, 3, 28, 13|
	13, 4, 29, 13|
	13, 5, 30, 13|
	13, 43, 13, 18|
	13, 44, 13, 19|
	13, 42, 13, 17|
	15, 4, 29, 15|
	15, 5, 30, 15|
	15, 6, 31, 15|
	15, 43, 15, 18|
	15, 44, 15, 19|
	16, 5, 30, 16|
	16, 6, 31, 16|
	16, 43, 16, 18|
	16, 44, 16, 19|
	17, 6, 31, 17|
	14, 22, 14, 47|
	14, 27, 14, 2|
	14, 28, 14, 3|
	14, 26, 14, 1|
	14, 30, 14, 5|
	14, 29, 14, 4|
	14, 48, 14, 23|
	20, 31, 20, 6|
	20, 27, 20, 2|
	20, 28, 20, 3|
	20, 26, 20, 1|
	20, 30, 20, 5|
	20, 29, 20, 4|
	20, 48, 20, 23|
	21, 31, 21, 6|
	21, 27, 21, 2|
	21, 28, 21, 3|
	21, 30, 21, 5|
	21, 29, 21, 4|
	22, 31, 22, 6|
	22, 27, 22, 2|
	22, 28, 22, 3|
	22, 30, 22, 5|
	22, 29, 22, 4|
	23, 31, 23, 6|
	23, 28, 23, 3|
	23, 30, 23, 5|
	23, 29, 23, 4|
	44, 43, 44, 31|
	27, 34, 9, 27|
	27, 35, 27, 10|
	27, 45, 20, 27|
	27, 26, 27, 28|
	28, 35, 10, 28|
	37, 34, 37, 9|
	37, 39, 37, 14|
	37, 45, 37, 20|
	38, 34, 38, 9|
	38, 35, 38, 10|
	38, 39, 14, 38|
	38, 45, 38, 20|
	38, 37, 38, 40|
	40, 34, 9, 40|
	40, 35, 10, 40|
	40, 45, 20, 40|
	26, 34, 26, 9|
	26, 39, 26, 14|
	26, 45, 26, 20|
	30, 39, 14, 30|
	30, 27, 30, 2|
	30, 28, 30, 3|
	30, 38, 13, 30|
	30, 40, 30, 15|
	30, 26, 1, 30|
	41, 34, 41, 9|
	41, 45, 41, 20|
	41, 37, 41, 12|
	41, 38, 41, 13|
	41, 26, 41, 1|
	42, 28, 42, 3|
	42, 37, 12, 42|
	42, 38, 13, 42|
	42, 40, 42, 15|
	42, 26, 1, 42|
	42, 41, 42, 24|
	24, 43, 24, 18|
	24, 34, 9, 24|
	24, 35, 10, 24|
	24, 45, 20, 24|
	24, 27, 2, 24|
	24, 28, 3, 24|
	24, 40, 15, 24|
	24, 42, 24, 25|
	25, 43, 25, 18|
	25, 44, 25, 19|
	25, 35, 10, 25|
	25, 28, 3, 25|
	29, 35, 29, 10|
	29, 27, 29, 2|
	29, 37, 12, 29|
	29, 38, 29, 13|
	29, 26, 1, 29|
	48, 28, 48, 3|
	48, 37, 12, 48|
	48, 40, 48, 15|
	48, 42, 48, 17|
	48, 29, 4, 48|
	48, 47, 48, 49|
	49, 43, 49, 18|
	49, 37, 12, 49|
	49, 38, 13, 49|
	49, 26, 1, 49|
	49, 30, 5, 49|
	49, 42, 17, 49|
	49, 29, 4, 49|
	49, 48, 49, 50|
	50, 43, 50, 18|
	50, 44, 50, 19|
	50, 39, 14, 50|
	50, 27, 2, 50|
	50, 38, 13, 50|
	50, 30, 5, 50|
	50, 24, 50, 49|
	36, 35, 36, 10|
	36, 27, 36, 2|
	36, 38, 36, 13|
	36, 41, 36, 16|
	36, 29, 36, 4|
	46, 35, 46, 10|
	46, 27, 46, 2|
	46, 38, 46, 13|
	46, 41, 46, 16|
	46, 29, 46, 4|
	47, 27, 47, 2|
	47, 28, 47, 3|
	47, 40, 47, 15|
	47, 30, 47, 5|
	47, 41, 16, 47|
	47, 42, 47, 17|
	47, 29, 47, 4|
	47, 46, 47, 48|];
SoftAtomicConstraints =  [|
20, 9|
21, 11|
1, 12|
3, 15|
5, 17|
6, 18|
42, 24|
24, 25|
26, 27|
27, 28|
29, 30|
44, 31|
33, 32|
50, 33|
34, 35|
37, 38|
38, 40|
41, 42|
45, 43|
43, 44|
39, 45|
46, 47|
47, 48|
48, 49|
49, 50|];
DirectSuccessors =  [];
